442
306
238
568
398
391
497
369
299
209
235
249
377
354
323
347
391
268
473
417
305
279
391
360
301
312
243
327
381
317
334
275
373
448
328
322
357
391
241
317
369
286
403
302
354
377
537
440
465
351
318
325
355
371
437
369
553
296
307
402
444
333
437
411
401
368
446
273
337
319
367
296
245
388
350
387
217
259
320
362
332
223
306
330
276
302
397
362
330
346
384
391
361
419
309
377
363
315
395
312
